p edge 1100 2640
e 1 865
e 1 866
e 1 261
e 1 262
e 1 297
e 1 298
e 1 510
e 1 446
e 1 509
e 1 597
e 1 598
e 1 825
e 1 826
e 1 445
e 1 253
e 1 254
e 2 867
e 2 828
e 2 263
e 2 264
e 2 868
e 2 299
e 2 300
e 2 600
e 2 447
e 2 599
e 2 512
e 2 511
e 2 827
e 2 448
e 2 255
e 2 256
e 3 850
e 3 457
e 3 458
e 3 717
e 3 718
e 3 849
e 3 569
e 3 570
e 3 537
e 3 538
e 3 413
e 3 414
e 4 572
e 4 459
e 4 460
e 4 719
e 4 720
e 4 851
e 4 852
e 4 539
e 4 540
e 4 571
e 4 415
e 4 416
e 5 453
e 5 454
e 5 329
e 5 330
e 5 925
e 5 926
e 5 841
e 5 1002
e 5 1001
e 5 842
e 5 953
e 5 954
e 5 893
e 5 894
e 6 332
e 6 455
e 6 456
e 6 331
e 6 844
e 6 956
e 6 1004
e 6 1003
e 6 927
e 6 955
e 6 928
e 6 843
e 6 895
e 6 896
e 7 985
e 7 265
e 7 266
e 7 369
e 7 370
e 7 757
e 7 758
e 7 986
e 7 918
e 7 821
e 7 917
e 7 989
e 7 990
e 7 822
e 8 823
e 8 267
e 8 268
e 8 919
e 8 824
e 8 371
e 8 372
e 8 920
e 8 759
e 8 760
e 8 987
e 8 988
e 8 991
e 8 992
e 9 605
e 9 293
e 9 294
e 9 509
e 9 1037
e 9 1038
e 9 542
e 9 245
e 9 246
e 9 541
e 9 606
e 9 285
e 9 286
e 9 511
e 10 295
e 10 296
e 10 1039
e 10 1040
e 10 543
e 10 247
e 10 248
e 10 544
e 10 608
e 10 512
e 10 607
e 10 510
e 10 287
e 10 288
e 11 993
e 11 994
e 11 1025
e 11 1026
e 11 853
e 11 854
e 11 665
e 11 666
e 11 221
e 11 222
e 12 995
e 12 996
e 12 1027
e 12 1028
e 12 855
e 12 856
e 12 667
e 12 668
e 12 223
e 12 224
e 13 1089
e 13 1090
e 13 529
e 13 530
e 13 345
e 13 346
e 14 1091
e 14 1092
e 14 531
e 14 532
e 14 347
e 14 348
e 15 609
e 15 610
e 15 945
e 15 946
e 15 729
e 15 497
e 15 498
e 15 757
e 15 759
e 15 730
e 15 249
e 15 250
e 16 611
e 16 612
e 16 732
e 16 948
e 16 947
e 16 499
e 16 500
e 16 758
e 16 760
e 16 251
e 16 252
e 16 731
e 17 449
e 17 450
e 17 482
e 17 941
e 17 534
e 17 942
e 17 401
e 17 402
e 17 501
e 17 481
e 17 823
e 17 821
e 17 533
e 17 285
e 17 287
e 17 502
e 18 451
e 18 452
e 18 535
e 18 536
e 18 483
e 18 943
e 18 484
e 18 824
e 18 403
e 18 404
e 18 822
e 18 503
e 18 504
e 18 944
e 18 286
e 18 288
e 19 641
e 19 642
e 19 897
e 19 325
e 19 326
e 19 898
e 19 989
e 19 1049
e 19 1009
e 19 1010
e 19 991
e 19 773
e 19 1050
e 19 377
e 19 378
e 19 901
e 19 637
e 19 638
e 19 902
e 19 774
e 20 643
e 20 644
e 20 775
e 20 327
e 20 328
e 20 776
e 20 899
e 20 1052
e 20 1011
e 20 900
e 20 904
e 20 903
e 20 1012
e 20 1051
e 20 379
e 20 380
e 20 992
e 20 990
e 20 639
e 20 640
e 21 257
e 21 258
e 21 229
e 21 230
e 21 813
e 21 365
e 21 366
e 21 814
e 21 369
e 21 371
e 21 405
e 21 406
e 21 377
e 21 677
e 21 379
e 21 949
e 21 477
e 21 478
e 21 950
e 21 678
e 22 816
e 22 259
e 22 260
e 22 679
e 22 231
e 22 232
e 22 952
e 22 680
e 22 367
e 22 368
e 22 370
e 22 372
e 22 951
e 22 815
e 22 407
e 22 408
e 22 378
e 22 380
e 22 479
e 22 480
e 23 705
e 23 706
e 23 833
e 23 834
e 23 941
e 23 943
e 23 945
e 23 947
e 24 707
e 24 836
e 24 942
e 24 835
e 24 944
e 24 946
e 24 708
e 24 948
e 25 1041
e 25 1042
e 25 1051
e 25 1049
e 26 1052
e 26 1050
e 26 1043
e 26 1044
e 27 481
e 27 483
e 27 933
e 27 934
e 27 253
e 27 845
e 27 846
e 27 629
e 27 255
e 27 413
e 27 415
e 27 630
e 28 482
e 28 848
e 28 484
e 28 935
e 28 936
e 28 847
e 28 254
e 28 631
e 28 632
e 28 256
e 28 414
e 28 416
e 29 765
e 29 681
e 29 682
e 29 1009
e 29 1065
e 29 1011
e 29 949
e 29 951
e 29 1066
e 29 473
e 29 474
e 29 413
e 29 766
e 29 416
e 30 1067
e 30 1068
e 30 683
e 30 684
e 30 1010
e 30 1012
e 30 767
e 30 952
e 30 950
e 30 475
e 30 476
e 30 414
e 30 415
e 30 768
e 31 921
e 31 922
e 31 733
e 31 734
e 32 923
e 32 924
e 32 735
e 32 736
e 33 545
e 33 546
e 33 517
e 33 518
e 33 305
e 33 306
e 33 405
e 33 407
e 33 729
e 33 731
e 33 733
e 33 735
e 34 547
e 34 548
e 34 519
e 34 520
e 34 307
e 34 308
e 34 406
e 34 408
e 34 730
e 34 732
e 34 734
e 34 736
e 35 721
e 35 722
e 35 793
e 35 794
e 36 796
e 36 723
e 36 724
e 36 795
e 37 769
e 37 770
e 37 521
e 37 522
e 37 653
e 37 654
e 37 657
e 37 658
e 37 537
e 37 282
e 37 539
e 37 829
e 37 305
e 37 307
e 37 607
e 37 573
e 37 574
e 37 581
e 37 582
e 37 605
e 37 281
e 37 233
e 37 234
e 37 830
e 38 771
e 38 772
e 38 523
e 38 524
e 38 655
e 38 656
e 38 659
e 38 660
e 38 538
e 38 283
e 38 540
e 38 284
e 38 306
e 38 308
e 38 575
e 38 576
e 38 583
e 38 584
e 38 606
e 38 608
e 38 235
e 38 236
e 38 831
e 38 832
e 39 737
e 39 738
e 39 645
e 39 646
e 39 361
e 39 362
e 39 843
e 39 841
e 39 665
e 39 985
e 39 601
e 39 602
e 39 667
e 39 987
e 40 844
e 40 739
e 40 668
e 40 647
e 40 648
e 40 842
e 40 363
e 40 364
e 40 988
e 40 740
e 40 986
e 40 666
e 40 603
e 40 604
e 41 225
e 41 226
e 41 1029
e 41 1030
e 41 361
e 41 637
e 41 363
e 41 721
e 41 433
e 41 434
e 41 723
e 41 1077
e 41 639
e 41 477
e 41 479
e 41 1078
e 42 227
e 42 228
e 42 1079
e 42 1031
e 42 1032
e 42 362
e 42 364
e 42 638
e 42 722
e 42 435
e 42 436
e 42 724
e 42 1080
e 42 640
e 42 478
e 42 480
e 43 385
e 43 386
e 43 995
e 43 993
e 43 1021
e 43 237
e 43 238
e 43 597
e 43 599
e 43 605
e 43 1022
e 43 608
e 44 994
e 44 387
e 44 388
e 44 1023
e 44 239
e 44 240
e 44 996
e 44 598
e 44 600
e 44 606
e 44 607
e 44 1024
e 45 417
e 45 418
e 45 897
e 45 961
e 45 962
e 45 233
e 45 1098
e 45 235
e 45 899
e 45 1097
e 45 857
e 45 858
e 46 898
e 46 419
e 46 420
e 46 234
e 46 1099
e 46 236
e 46 963
e 46 1100
e 46 900
e 46 859
e 46 860
e 46 964
e 47 1097
e 47 1099
e 48 1098
e 48 1100
e 49 929
e 49 930
e 49 1009
e 49 785
e 49 786
e 49 1012
e 49 661
e 49 278
e 49 277
e 49 662
e 50 931
e 50 932
e 50 279
e 50 280
e 50 1011
e 50 1010
e 50 787
e 50 788
e 50 663
e 50 664
e 51 993
e 51 996
e 51 905
e 51 906
e 51 1041
e 51 1043
e 52 994
e 52 995
e 52 907
e 52 908
e 52 1042
e 52 1044
e 53 673
e 53 674
e 53 589
e 53 590
e 53 725
e 53 726
e 53 473
e 53 475
e 54 675
e 54 676
e 54 591
e 54 592
e 54 727
e 54 728
e 54 474
e 54 476
e 55 225
e 55 913
e 55 227
e 55 421
e 55 422
e 55 781
e 55 914
e 55 393
e 55 394
e 55 745
e 55 557
e 55 558
e 55 782
e 55 625
e 55 626
e 55 746
e 55 941
e 55 944
e 56 943
e 56 226
e 56 228
e 56 748
e 56 423
e 56 424
e 56 942
e 56 395
e 56 396
e 56 915
e 56 559
e 56 560
e 56 627
e 56 628
e 56 783
e 56 784
e 56 916
e 56 747
e 57 389
e 57 390
e 57 910
e 57 861
e 57 909
e 57 429
e 57 430
e 57 862
e 57 277
e 57 279
e 57 1081
e 57 1082
e 57 317
e 57 318
e 58 1084
e 58 863
e 58 391
e 58 392
e 58 912
e 58 431
e 58 432
e 58 278
e 58 280
e 58 1083
e 58 864
e 58 911
e 58 319
e 58 320
e 59 865
e 59 867
e 59 855
e 59 777
e 59 778
e 59 301
e 59 302
e 59 245
e 59 247
e 59 853
e 59 701
e 59 702
e 60 866
e 60 868
e 60 779
e 60 780
e 60 303
e 60 304
e 60 856
e 60 246
e 60 854
e 60 248
e 60 703
e 60 704
e 61 689
e 61 1073
e 61 690
e 61 329
e 61 1034
e 61 331
e 61 909
e 61 911
e 61 273
e 61 274
e 61 1033
e 61 1074
e 62 1076
e 62 1036
e 62 330
e 62 1035
e 62 332
e 62 691
e 62 910
e 62 1075
e 62 275
e 62 276
e 62 692
e 62 912
e 63 257
e 63 929
e 63 259
e 63 517
e 63 486
e 63 519
e 63 1089
e 63 931
e 63 1013
e 63 1014
e 63 1091
e 63 485
e 63 1021
e 63 1023
e 64 1090
e 64 258
e 64 1092
e 64 260
e 64 518
e 64 487
e 64 520
e 64 488
e 64 932
e 64 1015
e 64 1016
e 64 1024
e 64 1022
e 64 930
e 65 553
e 65 554
e 65 597
e 65 600
e 66 555
e 66 556
e 66 598
e 66 599
e 67 225
e 67 609
e 67 611
e 67 228
e 67 549
e 67 550
e 67 710
e 67 373
e 67 374
e 67 693
e 67 709
e 67 765
e 67 767
e 67 694
e 68 226
e 68 227
e 68 612
e 68 695
e 68 551
e 68 552
e 68 696
e 68 712
e 68 711
e 68 610
e 68 375
e 68 376
e 68 766
e 68 768
e 69 577
e 69 578
e 69 897
e 69 900
e 69 997
e 69 998
e 69 585
e 69 586
e 69 937
e 69 341
e 69 342
e 69 938
e 70 898
e 70 579
e 70 580
e 70 999
e 70 1000
e 70 587
e 70 588
e 70 899
e 70 343
e 70 344
e 70 940
e 70 939
e 71 809
e 71 810
e 71 1003
e 71 813
e 71 815
e 71 1073
e 71 1001
e 71 1075
e 71 569
e 71 571
e 72 1004
e 72 1002
e 72 811
e 72 812
e 72 814
e 72 816
e 72 1074
e 72 1076
e 72 570
e 72 572
e 73 433
e 73 977
e 73 978
e 73 337
e 73 338
e 73 435
e 73 541
e 73 543
e 74 979
e 74 436
e 74 434
e 74 339
e 74 340
e 74 542
e 74 980
e 74 544
e 75 1061
e 75 1062
e 75 233
e 75 236
e 75 589
e 75 591
e 75 953
e 75 955
e 76 1063
e 76 1064
e 76 234
e 76 235
e 76 590
e 76 592
e 76 954
e 76 956
e 77 257
e 77 260
e 77 581
e 77 583
e 77 265
e 77 267
e 77 301
e 77 303
e 77 881
e 77 882
e 77 1017
e 77 1018
e 78 258
e 78 259
e 78 582
e 78 584
e 78 266
e 78 268
e 78 302
e 78 304
e 78 883
e 78 884
e 78 1019
e 78 1020
e 79 513
e 79 514
e 79 357
e 79 358
e 80 515
e 80 516
e 80 359
e 80 360
e 81 953
e 81 956
e 81 669
e 81 670
e 82 954
e 82 955
e 82 671
e 82 672
e 83 657
e 83 549
e 83 1031
e 83 551
e 83 717
e 83 659
e 83 719
e 83 401
e 83 403
e 83 1013
e 83 1015
e 83 729
e 83 1029
e 83 732
e 84 550
e 84 402
e 84 552
e 84 718
e 84 720
e 84 658
e 84 404
e 84 660
e 84 1014
e 84 1016
e 84 1032
e 84 730
e 84 731
e 84 1030
e 85 865
e 85 868
e 85 1005
e 85 877
e 85 878
e 85 1006
e 85 561
e 85 562
e 85 437
e 85 438
e 85 1079
e 85 1077
e 85 573
e 85 575
e 86 1078
e 86 866
e 86 867
e 86 1080
e 86 879
e 86 880
e 86 563
e 86 564
e 86 1007
e 86 439
e 86 440
e 86 1008
e 86 574
e 86 576
e 87 961
e 87 963
e 87 293
e 87 295
e 87 525
e 87 397
e 87 398
e 87 526
e 87 373
e 87 717
e 87 375
e 87 720
e 88 719
e 88 962
e 88 964
e 88 294
e 88 296
e 88 718
e 88 399
e 88 400
e 88 374
e 88 376
e 88 527
e 88 528
e 89 229
e 89 231
e 89 873
e 89 874
e 89 505
e 89 506
e 89 733
e 89 736
e 90 230
e 90 232
e 90 875
e 90 876
e 90 507
e 90 508
e 90 734
e 90 735
e 91 1025
e 91 1027
e 91 741
e 91 742
e 91 393
e 91 395
e 91 749
e 91 750
e 91 885
e 91 886
e 92 1026
e 92 1028
e 92 743
e 92 744
e 92 394
e 92 396
e 92 751
e 92 752
e 92 887
e 92 888
e 93 353
e 93 354
e 93 749
e 93 751
e 93 849
e 93 851
e 94 355
e 94 356
e 94 750
e 94 752
e 94 850
e 94 852
e 95 1025
e 95 1028
e 95 949
e 95 952
e 95 685
e 95 686
e 95 689
e 95 691
e 95 725
e 95 727
e 95 760
e 95 569
e 95 757
e 95 572
e 95 445
e 95 447
e 96 758
e 96 1026
e 96 1027
e 96 951
e 96 687
e 96 688
e 96 690
e 96 692
e 96 726
e 96 759
e 96 728
e 96 570
e 96 571
e 96 446
e 96 950
e 96 448
e 97 753
e 97 754
e 97 777
e 97 779
e 97 762
e 97 1005
e 97 761
e 97 1007
e 97 337
e 97 697
e 97 339
e 97 634
e 97 633
e 97 698
e 98 700
e 98 764
e 98 763
e 98 780
e 98 778
e 98 1006
e 98 1008
e 98 338
e 98 755
e 98 340
e 98 756
e 98 635
e 98 636
e 98 699
e 99 321
e 99 322
e 99 387
e 99 901
e 99 903
e 99 585
e 99 587
e 99 1035
e 99 798
e 99 681
e 99 385
e 99 789
e 99 790
e 99 1033
e 99 1080
e 99 633
e 99 1077
e 99 635
e 99 797
e 99 683
e 100 386
e 100 323
e 100 324
e 100 684
e 100 904
e 100 586
e 100 588
e 100 1079
e 100 792
e 100 1036
e 100 388
e 100 1034
e 100 1078
e 100 791
e 100 682
e 100 902
e 100 634
e 100 636
e 100 799
e 100 800
e 101 1065
e 101 893
e 101 1067
e 101 1017
e 101 895
e 101 793
e 101 795
e 101 925
e 101 1019
e 101 927
e 102 896
e 102 1066
e 102 1068
e 102 1020
e 102 894
e 102 1018
e 102 794
e 102 796
e 102 926
e 102 928
e 103 513
e 103 515
e 103 261
e 103 679
e 103 263
e 103 329
e 103 332
e 103 845
e 103 847
e 103 593
e 103 594
e 103 1081
e 103 677
e 103 1083
e 103 221
e 103 223
e 104 514
e 104 516
e 104 262
e 104 264
e 104 330
e 104 331
e 104 680
e 104 846
e 104 848
e 104 678
e 104 595
e 104 596
e 104 1082
e 104 1084
e 104 222
e 104 224
e 105 513
e 105 516
e 105 613
e 105 614
e 105 713
e 105 714
e 105 919
e 105 945
e 105 948
e 105 437
e 105 439
e 105 281
e 105 917
e 105 283
e 105 989
e 105 992
e 106 514
e 106 515
e 106 615
e 106 616
e 106 715
e 106 716
e 106 946
e 106 947
e 106 920
e 106 438
e 106 440
e 106 282
e 106 284
e 106 990
e 106 991
e 106 918
e 107 325
e 107 327
e 107 1037
e 107 237
e 107 239
e 107 789
e 107 1039
e 107 791
e 108 326
e 108 328
e 108 1038
e 108 238
e 108 240
e 108 790
e 108 792
e 108 1040
e 109 873
e 109 349
e 109 875
e 109 429
e 109 431
e 109 529
e 109 531
e 109 509
e 109 350
e 109 512
e 110 874
e 110 876
e 110 430
e 110 432
e 110 530
e 110 532
e 110 351
e 110 510
e 110 511
e 110 352
e 111 965
e 111 805
e 111 806
e 111 269
e 111 270
e 111 561
e 111 563
e 111 837
e 111 966
e 111 861
e 111 863
e 111 838
e 112 839
e 112 807
e 112 808
e 112 840
e 112 271
e 112 272
e 112 562
e 112 564
e 112 968
e 112 967
e 112 862
e 112 864
e 113 297
e 113 299
e 113 365
e 113 367
e 113 497
e 113 499
e 113 565
e 113 566
e 113 669
e 113 671
e 114 298
e 114 300
e 114 366
e 114 368
e 114 498
e 114 500
e 114 567
e 114 568
e 114 670
e 114 672
e 115 753
e 115 409
e 115 441
e 115 869
e 115 870
e 115 809
e 115 811
e 115 241
e 115 242
e 115 755
e 115 1045
e 115 1046
e 115 442
e 115 249
e 115 410
e 115 251
e 115 381
e 115 382
e 116 412
e 116 871
e 116 872
e 116 444
e 116 810
e 116 812
e 116 754
e 116 243
e 116 244
e 116 1047
e 116 756
e 116 1048
e 116 250
e 116 411
e 116 252
e 116 443
e 116 383
e 116 384
e 117 801
e 117 802
e 117 1093
e 117 1092
e 117 613
e 117 743
e 117 615
e 117 905
e 117 741
e 117 369
e 117 372
e 117 533
e 117 470
e 117 535
e 117 890
e 117 889
e 117 469
e 117 907
e 117 1094
e 117 1089
e 118 1090
e 118 803
e 118 804
e 118 1096
e 118 614
e 118 1095
e 118 616
e 118 906
e 118 472
e 118 908
e 118 1091
e 118 744
e 118 370
e 118 371
e 118 534
e 118 471
e 118 536
e 118 891
e 118 892
e 118 742
e 119 325
e 119 969
e 119 328
e 119 489
e 119 490
e 119 617
e 119 970
e 119 309
e 119 310
e 119 618
e 119 1049
e 119 1052
e 119 957
e 119 958
e 120 620
e 120 326
e 120 327
e 120 491
e 120 492
e 120 972
e 120 971
e 120 311
e 120 312
e 120 1050
e 120 1051
e 120 619
e 120 959
e 120 960
e 121 785
e 121 684
e 121 453
e 121 455
e 121 616
e 121 393
e 121 396
e 121 787
e 121 241
e 121 681
e 121 243
e 121 697
e 121 613
e 121 699
e 122 454
e 122 615
e 122 456
e 122 394
e 122 395
e 122 242
e 122 244
e 122 682
e 122 788
e 122 698
e 122 700
e 122 786
e 122 683
e 122 614
e 123 489
e 123 621
e 123 491
e 123 1068
e 123 653
e 123 622
e 123 655
e 123 937
e 123 789
e 123 1065
e 123 792
e 123 939
e 124 940
e 124 490
e 124 1067
e 124 492
e 124 654
e 124 623
e 124 656
e 124 790
e 124 791
e 124 938
e 124 1066
e 124 624
e 125 353
e 125 355
e 125 229
e 125 232
e 125 617
e 125 619
e 126 354
e 126 356
e 126 230
e 126 231
e 126 618
e 126 620
e 127 477
e 127 973
e 127 974
e 127 881
e 127 883
e 127 981
e 127 982
e 127 889
e 127 891
e 127 480
e 127 573
e 127 576
e 128 976
e 128 975
e 128 574
e 128 882
e 128 884
e 128 479
e 128 983
e 128 984
e 128 890
e 128 892
e 128 478
e 128 575
e 129 1097
e 129 713
e 129 715
e 129 1100
e 129 817
e 129 818
e 129 437
e 129 440
e 129 825
e 129 827
e 130 714
e 130 1099
e 130 716
e 130 819
e 130 820
e 130 438
e 130 439
e 130 1098
e 130 826
e 130 828
e 131 929
e 131 817
e 131 700
e 131 645
e 131 775
e 131 647
e 131 264
e 131 745
e 131 747
e 131 819
e 131 593
e 131 697
e 131 595
e 131 932
e 131 773
e 131 665
e 131 261
e 131 668
e 131 829
e 131 831
e 132 930
e 132 931
e 132 262
e 132 263
e 132 648
e 132 746
e 132 748
e 132 830
e 132 776
e 132 594
e 132 818
e 132 596
e 132 774
e 132 698
e 132 666
e 132 667
e 132 832
e 132 699
e 132 820
e 132 646
e 133 1057
e 133 1058
e 133 781
e 133 969
e 133 621
e 133 971
e 133 493
e 133 494
e 133 623
e 133 245
e 133 783
e 133 248
e 134 784
e 134 1059
e 134 1060
e 134 782
e 134 970
e 134 972
e 134 622
e 134 495
e 134 624
e 134 246
e 134 247
e 134 496
e 135 553
e 135 555
e 135 761
e 135 763
e 135 925
e 135 928
e 136 554
e 136 556
e 136 762
e 136 764
e 136 926
e 136 927
e 137 289
e 137 290
e 137 803
e 137 709
e 137 711
e 137 649
e 137 650
e 137 981
e 137 983
e 137 801
e 138 802
e 138 291
e 138 292
e 138 710
e 138 712
e 138 651
e 138 652
e 138 804
e 138 982
e 138 984
e 139 901
e 139 999
e 139 904
e 139 977
e 139 979
e 139 373
e 139 376
e 139 377
e 139 997
e 139 380
e 139 253
e 139 256
e 140 902
e 140 903
e 140 1000
e 140 978
e 140 980
e 140 374
e 140 375
e 140 378
e 140 379
e 140 254
e 140 255
e 140 998
e 141 893
e 141 333
e 141 365
e 141 334
e 141 877
e 141 368
e 141 465
e 141 466
e 141 725
e 141 879
e 141 728
e 141 896
e 141 669
e 141 672
e 142 894
e 142 895
e 142 878
e 142 366
e 142 367
e 142 336
e 142 467
e 142 468
e 142 335
e 142 727
e 142 880
e 142 670
e 142 671
e 142 726
e 143 545
e 143 785
e 143 547
e 143 557
e 143 559
e 143 433
e 143 436
e 143 469
e 143 471
e 143 409
e 143 788
e 143 411
e 144 546
e 144 548
e 144 786
e 144 558
e 144 560
e 144 434
e 144 435
e 144 470
e 144 472
e 144 410
e 144 787
e 144 412
e 145 773
e 145 776
e 145 429
e 145 685
e 145 687
e 145 432
e 145 1073
e 145 1076
e 145 885
e 145 887
e 146 686
e 146 774
e 146 775
e 146 430
e 146 431
e 146 688
e 146 1074
e 146 1075
e 146 886
e 146 888
e 147 641
e 147 643
e 147 709
e 147 871
e 147 807
e 147 712
e 147 1000
e 147 781
e 147 784
e 147 869
e 147 805
e 147 701
e 147 997
e 147 703
e 148 642
e 148 644
e 148 710
e 148 711
e 148 808
e 148 872
e 148 782
e 148 783
e 148 806
e 148 870
e 148 999
e 148 998
e 148 702
e 148 704
e 149 481
e 149 817
e 149 484
e 149 361
e 149 651
e 149 364
e 149 333
e 149 335
e 149 625
e 149 649
e 149 627
e 149 820
e 149 693
e 149 695
e 149 797
e 149 799
e 150 482
e 150 483
e 150 818
e 150 362
e 150 363
e 150 652
e 150 334
e 150 336
e 150 626
e 150 819
e 150 628
e 150 694
e 150 650
e 150 696
e 150 798
e 150 800
e 151 1045
e 151 645
e 151 1047
e 151 648
e 152 1048
e 152 646
e 152 647
e 152 1046
e 153 641
e 153 644
e 153 457
e 153 685
e 153 459
e 153 588
e 153 461
e 153 462
e 153 688
e 153 585
e 153 889
e 153 892
e 154 642
e 154 643
e 154 458
e 154 587
e 154 460
e 154 686
e 154 463
e 154 464
e 154 687
e 154 586
e 154 890
e 154 891
e 155 321
e 155 705
e 155 323
e 155 1059
e 155 1057
e 155 829
e 155 461
e 155 1021
e 155 333
e 155 707
e 155 463
e 155 336
e 155 527
e 155 525
e 155 1024
e 155 317
e 155 319
e 155 832
e 156 322
e 156 324
e 156 1060
e 156 830
e 156 706
e 156 1058
e 156 1022
e 156 334
e 156 335
e 156 462
e 156 708
e 156 1023
e 156 528
e 156 464
e 156 526
e 156 318
e 156 831
e 156 320
e 157 1093
e 157 876
e 157 421
e 157 423
e 157 839
e 157 425
e 157 426
e 157 844
e 157 1095
e 157 913
e 157 841
e 157 915
e 157 873
e 157 967
e 157 837
e 157 965
e 158 966
e 158 1096
e 158 422
e 158 840
e 158 842
e 158 427
e 158 428
e 158 875
e 158 914
e 158 916
e 158 968
e 158 874
e 158 424
e 158 843
e 158 1094
e 158 838
e 159 1041
e 159 357
e 159 935
e 159 359
e 159 273
e 159 275
e 159 1044
e 159 661
e 159 663
e 159 1016
e 159 1017
e 159 933
e 159 1020
e 159 1013
e 160 1042
e 160 358
e 160 360
e 160 936
e 160 274
e 160 1043
e 160 276
e 160 662
e 160 1015
e 160 664
e 160 1018
e 160 1019
e 160 1014
e 160 934
e 161 769
e 161 771
e 161 1069
e 161 1045
e 161 1048
e 161 541
e 161 544
e 161 813
e 161 1070
e 161 816
e 161 1085
e 161 1086
e 161 449
e 161 451
e 161 973
e 161 845
e 161 975
e 161 848
e 161 857
e 161 859
e 161 505
e 161 507
e 161 765
e 161 768
e 162 770
e 162 772
e 162 815
e 162 1047
e 162 542
e 162 543
e 162 814
e 162 1071
e 162 1072
e 162 1087
e 162 1088
e 162 450
e 162 452
e 162 974
e 162 847
e 162 846
e 162 858
e 162 860
e 162 976
e 162 506
e 162 508
e 162 766
e 162 767
e 162 1046
e 163 833
e 163 977
e 163 835
e 163 1061
e 163 1063
e 163 265
e 163 268
e 163 593
e 163 596
e 163 980
e 164 834
e 164 836
e 164 1062
e 164 978
e 164 266
e 164 267
e 164 1064
e 164 979
e 164 594
e 164 595
e 165 389
e 165 391
e 165 657
e 165 660
e 165 277
e 165 280
e 165 409
e 165 412
e 165 805
e 165 808
e 165 809
e 165 812
e 165 445
e 165 1087
e 165 448
e 165 961
e 165 964
e 165 853
e 165 856
e 165 1085
e 165 317
e 165 320
e 166 390
e 166 392
e 166 658
e 166 659
e 166 278
e 166 279
e 166 410
e 166 411
e 166 806
e 166 807
e 166 810
e 166 811
e 166 318
e 166 1086
e 166 447
e 166 1088
e 166 962
e 166 963
e 166 854
e 166 855
e 166 446
e 166 319
e 167 940
e 167 549
e 167 552
e 167 617
e 167 620
e 167 653
e 167 656
e 167 465
e 167 937
e 167 467
e 168 550
e 168 551
e 168 618
e 168 619
e 168 654
e 168 655
e 168 466
e 168 468
e 168 938
e 168 939
e 169 385
e 169 388
e 169 421
e 169 424
e 169 745
e 169 748
e 169 301
e 169 304
e 169 1081
e 169 313
e 169 314
e 169 1084
e 170 386
e 170 387
e 170 422
e 170 423
e 170 746
e 170 747
e 170 302
e 170 303
e 170 1082
e 170 315
e 170 316
e 170 1083
e 171 289
e 171 291
e 171 521
e 171 861
e 171 523
e 171 625
e 171 628
e 171 864
e 171 701
e 171 704
e 172 290
e 172 292
e 172 522
e 172 524
e 172 862
e 172 626
e 172 627
e 172 863
e 172 702
e 172 703
e 173 957
e 173 565
e 173 567
e 173 797
e 173 959
e 173 800
e 174 798
e 174 566
e 174 568
e 174 958
e 174 799
e 174 960
e 175 737
e 175 739
e 175 485
e 175 487
e 175 521
e 175 524
e 175 749
e 175 752
e 175 1053
e 175 1054
e 176 738
e 176 740
e 176 486
e 176 488
e 176 522
e 176 523
e 176 750
e 176 751
e 176 1055
e 176 1056
e 177 485
e 177 488
e 177 777
e 177 780
e 177 269
e 177 271
e 177 857
e 177 860
e 177 285
e 177 288
e 178 486
e 178 487
e 178 778
e 178 779
e 178 270
e 178 272
e 178 858
e 178 859
e 178 286
e 178 287
e 179 705
e 179 708
e 179 389
e 179 716
e 179 392
e 179 425
e 179 427
e 179 296
e 179 713
e 179 601
e 179 293
e 179 603
e 179 381
e 179 383
e 180 706
e 180 707
e 180 295
e 180 390
e 180 391
e 180 426
e 180 715
e 180 428
e 180 714
e 180 602
e 180 294
e 180 604
e 180 382
e 180 384
e 181 453
e 181 456
e 181 425
e 181 1053
e 181 428
e 181 493
e 181 495
e 181 744
e 181 968
e 181 741
e 181 965
e 181 1055
e 182 454
e 182 455
e 182 426
e 182 427
e 182 494
e 182 496
e 182 743
e 182 967
e 182 966
e 182 1056
e 182 1054
e 182 742
e 183 345
e 183 347
e 184 346
e 184 348
e 185 281
e 185 284
e 186 282
e 186 283
e 187 321
e 187 417
e 187 419
e 187 324
e 187 1061
e 187 1064
e 187 589
e 187 592
e 187 917
e 187 920
e 188 322
e 188 323
e 188 420
e 188 1062
e 188 1063
e 188 418
e 188 590
e 188 591
e 188 918
e 188 919
e 189 737
e 189 913
e 189 740
e 189 349
e 189 557
e 189 916
e 189 560
e 189 273
e 189 276
e 189 985
e 189 988
e 189 381
e 189 351
e 189 384
e 190 738
e 190 739
e 190 914
e 190 558
e 190 559
e 190 350
e 190 274
e 190 275
e 190 915
e 190 986
e 190 987
e 190 382
e 190 383
e 190 352
e 191 289
e 191 753
e 191 292
e 191 756
e 191 525
e 191 528
e 191 529
e 191 532
e 191 405
e 191 408
e 191 313
e 191 804
e 191 315
e 191 801
e 192 290
e 192 291
e 192 754
e 192 803
e 192 526
e 192 527
e 192 530
e 192 531
e 192 406
e 192 407
e 192 314
e 192 316
e 192 802
e 192 755
e 193 577
e 193 673
e 193 579
e 193 837
e 193 840
e 193 553
e 193 556
e 193 493
e 193 675
e 193 496
e 194 578
e 194 580
e 194 838
e 194 839
e 194 674
e 194 554
e 194 555
e 194 494
e 194 495
e 194 676
e 195 609
e 195 612
e 195 540
e 195 497
e 195 537
e 195 921
e 195 500
e 195 501
e 195 503
e 195 824
e 195 345
e 195 821
e 195 923
e 195 348
e 195 1085
e 195 1088
e 196 610
e 196 611
e 196 538
e 196 1086
e 196 922
e 196 498
e 196 499
e 196 502
e 196 823
e 196 504
e 196 346
e 196 347
e 196 924
e 196 539
e 196 1087
e 196 822
e 197 1033
e 197 1036
e 197 565
e 197 568
e 197 441
e 197 443
e 198 1034
e 198 1035
e 198 566
e 198 567
e 198 442
e 198 444
e 199 769
e 199 652
e 199 357
e 199 360
e 199 489
e 199 492
e 199 972
e 199 241
e 199 649
e 199 244
e 199 969
e 199 249
e 199 772
e 199 252
e 200 770
e 200 771
e 200 358
e 200 359
e 200 490
e 200 491
e 200 971
e 200 242
e 200 243
e 200 650
e 200 250
e 200 251
e 200 970
e 200 651
e 201 833
e 201 836
e 201 1029
e 201 1032
e 201 1040
e 201 237
e 201 984
e 201 621
e 201 1037
e 201 624
e 201 849
e 201 852
e 201 885
e 201 888
e 201 981
e 201 240
e 202 834
e 202 835
e 202 983
e 202 1031
e 202 1039
e 202 1038
e 202 238
e 202 623
e 202 622
e 202 850
e 202 851
e 202 239
e 202 887
e 202 982
e 202 1030
e 202 886
e 203 353
e 203 449
e 203 356
e 203 689
e 203 828
e 203 1071
e 203 1005
e 203 1069
e 203 452
e 203 1008
e 203 305
e 203 825
e 203 308
e 203 469
e 203 692
e 203 472
e 203 505
e 203 508
e 203 349
e 203 352
e 204 354
e 204 355
e 204 1070
e 204 450
e 204 826
e 204 451
e 204 1007
e 204 1006
e 204 306
e 204 307
e 204 691
e 204 470
e 204 471
e 204 690
e 204 827
e 204 506
e 204 507
e 204 1072
e 204 350
e 204 351
e 205 631
e 205 297
e 205 909
e 205 300
e 205 397
e 205 399
e 205 912
e 205 721
e 205 629
e 205 724
e 205 309
e 205 311
e 205 536
e 205 533
e 205 976
e 205 973
e 206 975
e 206 910
e 206 298
e 206 299
e 206 632
e 206 630
e 206 398
e 206 911
e 206 400
e 206 722
e 206 723
e 206 974
e 206 310
e 206 535
e 206 312
e 206 534
e 207 796
e 207 581
e 207 584
e 207 1001
e 207 397
e 207 1004
e 207 461
e 207 464
e 207 793
e 207 400
e 207 664
e 207 313
e 207 661
e 207 316
e 208 582
e 208 583
e 208 1002
e 208 1003
e 208 398
e 208 463
e 208 462
e 208 399
e 208 663
e 208 794
e 208 314
e 208 315
e 208 795
e 208 662
e 209 1057
e 209 881
e 209 924
e 209 869
e 209 872
e 209 884
e 209 401
e 209 921
e 209 404
e 209 341
e 209 1060
e 209 343
e 209 312
e 209 601
e 209 309
e 209 604
e 210 1058
e 210 1059
e 210 870
e 210 871
e 210 882
e 210 883
e 210 922
e 210 402
e 210 403
e 210 310
e 210 311
e 210 344
e 210 602
e 210 603
e 210 923
e 210 342
e 211 561
e 211 933
e 211 936
e 211 1056
e 211 1053
e 211 1096
e 211 465
e 211 564
e 211 468
e 211 633
e 211 1093
e 211 636
e 211 637
e 211 640
e 212 934
e 212 935
e 212 562
e 212 563
e 212 1054
e 212 466
e 212 467
e 212 1055
e 212 634
e 212 635
e 212 1095
e 212 638
e 212 639
e 212 1094
e 213 417
e 213 420
e 213 517
e 213 520
e 213 504
e 213 341
e 213 344
e 213 441
e 213 501
e 213 444
e 214 418
e 214 419
e 214 503
e 214 519
e 214 518
e 214 342
e 214 343
e 214 442
e 214 443
e 214 502
e 215 545
e 215 548
e 215 877
e 215 269
e 215 272
e 215 880
e 215 473
e 215 476
e 216 546
e 216 547
e 216 270
e 216 271
e 216 878
e 216 879
e 216 474
e 216 475
e 217 577
e 217 673
e 217 580
e 217 677
e 217 680
e 217 457
e 217 460
e 217 676
e 217 693
e 217 696
e 217 761
e 217 764
e 217 221
e 217 224
e 218 578
e 218 579
e 218 678
e 218 679
e 218 674
e 218 458
e 218 459
e 218 675
e 218 694
e 218 695
e 218 762
e 218 763
e 218 222
e 218 223
e 219 905
e 219 908
e 219 1069
e 219 1072
e 219 337
e 219 340
e 219 629
e 219 632
e 219 957
e 219 960
e 220 906
e 220 907
e 220 1070
e 220 1071
e 220 338
e 220 339
e 220 630
e 220 631
e 220 958
e 220 959